
Route #1: 11 36 17 23 21 18 22 34 10 38 
Route #2: 15 24 29 28 26 14 31 5 
Route #3: 13 30 20 32 
Route #4: 3 37 35 25 19 33 7 8 
Route #5: 2 4 16 27 12 9 
Route #6: 6 1 
cost 1186.34
total time is 3.3